# 46767
param k := 6;
param n := 50;
param s := 1;
set E :=  (0,4) (0,43) (1,5) (1,7) (1,17) (1,40) (2,23) (2,36) (2,47) (3,11) (3,31) (3,43) (4,7) (4,10) (4,19) (4,36) (4,38) (5,19) (6,22) (6,27) (6,39) (7,24) (7,25) (7,35) (8,29) (8,37) (8,38) (9,18) (9,41) (11,16) (12,18) (12,30) (12,43) (13,38) (14,43) (15,20) (15,47) (16,41) (16,42) (17,21) (18,27) (18,32) (20,22) (21,22) (22,28) (23,29) (23,48) (24,32) (24,35) (25,36) (26,44) (26,48) (27,39) (29,46) (30,40) (30,41) (31,34) (33,38) (33,45) (34,36) (34,46) (36,38) (37,40) (39,44) (39,46) (43,44) (43,49) (44,49) (45,47);